s td 44 5 48
b 1 1 2 13
b 2 11 12 24
b 3 25 37 38
b 4 36 47 48
b 5 2 3 13 14
b 6 10 11 23 24
b 7 3 4 16 29 42
b 8 4 5 16 29 42
b 9 5 16 18 29 42
b 10 5 18 29 31 42
b 11 5 18 31 42 44
b 12 5 7 18 31 44
b 13 5 6 7 18
b 14 7 18 20 31 44
b 15 7 20 31 33 44
b 16 7 20 33 44 46
b 17 7 9 20 33 46
b 18 7 8 9 20
b 19 9 20 22 33 46
b 20 9 22 33 35 46
b 21 9 22 24 35 46
b 22 9 22 23 24 35
b 23 9 10 22 23 24
b 24 24 35 36 46
b 25 22 33 34 35 46
b 26 9 20 21 22 33
b 27 33 44 45 46
b 28 20 31 32 33 44
b 29 7 18 19 20 31
b 30 31 42 43 44
b 31 18 29 30 31 42
b 32 5 16 17 18 29
b 33 3 16 29 40 42
b 34 3 16 27 29 40
b 35 3 14 16 27 40
b 36 3 14 25 27 40
b 37 3 13 14 25
b 38 14 25 27 39 40
b 39 14 25 26 27 39
b 40 3 14 15 16 27
b 41 16 27 28 29 40
b 42 29 40 41 42
b 43 25 26 38 39
b 44 35 36 46 47
1 5
2 6
3 43
4 44
5 37
6 23
7 8
7 33
8 9
9 10
9 32
10 11
10 31
11 12
11 30
12 13
12 14
14 15
14 29
15 16
15 28
16 17
16 27
17 18
17 19
19 20
19 26
20 21
20 25
21 22
21 24
22 23
24 44
33 34
33 42
34 35
34 41
35 36
35 40
36 37
36 38
38 39
39 43
